c Random 3-SAT formula
c Number of variables: 7
c Number of clauses: 25
p cnf 7 25
6 -1 5 0
-3 -1 6 0
-6 1 5 0
3 -6 2 0
7 -1 2 0
-3 6 1 0
4 -1 -2 0
-1 2 -6 0
-5 3 -2 0
-2 -5 -6 0
4 1 -2 0
2 7 -5 0
7 -3 -6 0
-5 2 -7 0
5 -7 6 0
-5 1 7 0
-1 2 7 0
-6 -3 5 0
7 3 -2 0
-7 4 1 0
6 5 7 0
7 2 -5 0
-1 7 -5 0
4 -5 3 0
-3 -5 -1 0
